========================================================== 
File name: C:\DEGR\assets\definitions\MSRCPSP_Gen\200_40_512_10_B.def
Creation date: Wed May 03 10:50:01 CEST 2023
Website: http://imopse.ii.pwr.edu.pl/ 
Reference: 
Myszkowski P. B., Skowronski M. E., Olech L., Oslizlo K., 
Hybrid Ant Colony Optimization in solving Multi-Skill Resource-Constrained Project Scheduling Problem, 
Soft Computing, DOI: DOI 10.1007/s00500-014-1455-x 
========================================================== 
General characteristics: 
Tasks: 200
Resources: 40
Precedence relations: 507
Number of skill types: 10
========================================================== 
ResourceID 	 Salary 	 Skills 
1	 	 	41.5	 	 Q5: 1 	  Q2: 0 	 
2	 	 	20.9	 	 Q4: 1 	  Q2: 0 	  Q5: 1 	  Q0: 2 	  Q3: 0 	  Q6: 3 	  Q1: 0 	  Q8: 1 	  Q7: 3 	 
3	 	 	33.8	 	 Q2: 1 	  Q0: 0 	 
4	 	 	55.2	 	 Q3: 3 	  Q7: 2 	  Q2: 2 	  Q4: 0 	  Q1: 1 	  Q8: 1 	  Q6: 0 	  Q5: 3 	  Q0: 0 	 
5	 	 	58.1	 	 Q8: 1 	  Q0: 3 	  Q9: 2 	  Q6: 1 	  Q3: 2 	  Q2: 3 	  Q1: 2 	  Q5: 3 	  Q4: 3 	 
6	 	 	69.7	 	 Q6: 2 	  Q2: 2 	 
7	 	 	25.9	 	 Q3: 3 	 
8	 	 	88.5	 	 Q0: 2 	  Q2: 0 	  Q7: 3 	  Q5: 3 	  Q9: 0 	  Q1: 2 	  Q6: 1 	  Q8: 0 	  Q3: 0 	 
9	 	 	62.9	 	 Q1: 1 	  Q9: 3 	  Q3: 3 	 
10	 	 	59.3	 	 Q0: 1 	  Q6: 1 	  Q7: 0 	  Q1: 0 	  Q4: 3 	  Q5: 2 	 
11	 	 	73.1	 	 Q6: 1 	  Q3: 3 	 
12	 	 	18.9	 	 Q2: 1 	  Q1: 1 	  Q0: 1 	  Q5: 0 	  Q4: 0 	  Q9: 2 	 
13	 	 	52.4	 	 Q2: 1 	  Q6: 0 	  Q0: 2 	  Q5: 0 	  Q4: 2 	  Q3: 3 	  Q8: 1 	 
14	 	 	21.3	 	 Q1: 1 	  Q3: 3 	  Q0: 1 	  Q7: 1 	  Q6: 3 	  Q5: 2 	  Q4: 0 	  Q9: 2 	 
15	 	 	73.4	 	 Q6: 2 	  Q1: 2 	  Q4: 0 	 
16	 	 	97.2	 	 Q6: 3 	  Q1: 1 	  Q3: 0 	  Q2: 1 	  Q5: 1 	  Q8: 1 	  Q0: 1 	  Q4: 0 	 
17	 	 	94.3	 	 Q7: 1 	  Q9: 0 	  Q1: 3 	  Q2: 0 	  Q6: 3 	  Q8: 3 	  Q4: 2 	  Q3: 1 	  Q5: 0 	 
18	 	 	83.9	 	 Q0: 0 	  Q3: 1 	  Q9: 1 	  Q7: 0 	 
19	 	 	41.1	 	 Q2: 0 	  Q1: 0 	  Q6: 3 	  Q5: 1 	  Q8: 0 	  Q9: 3 	 
20	 	 	35.2	 	 Q9: 2 	  Q4: 0 	 
21	 	 	88.9	 	 Q1: 3 	  Q8: 2 	  Q7: 3 	  Q2: 3 	  Q3: 0 	  Q5: 3 	  Q0: 1 	 
22	 	 	22.6	 	 Q2: 3 	  Q5: 0 	  Q9: 2 	  Q6: 3 	  Q1: 0 	  Q7: 3 	  Q8: 2 	 
23	 	 	99.7	 	 Q7: 1 	  Q3: 3 	  Q5: 2 	  Q4: 3 	  Q2: 3 	  Q8: 2 	  Q1: 0 	 
24	 	 	18.7	 	 Q4: 1 	  Q6: 0 	  Q3: 1 	  Q9: 1 	 
25	 	 	65.7	 	 Q2: 1 	  Q9: 1 	 
26	 	 	66.1	 	 Q8: 1 	  Q7: 1 	  Q2: 3 	  Q9: 2 	  Q1: 2 	 
27	 	 	63.9	 	 Q1: 0 	  Q9: 3 	  Q6: 2 	  Q5: 1 	 
28	 	 	71.6	 	 Q1: 1 	 
29	 	 	89.6	 	 Q9: 3 	  Q7: 3 	  Q6: 3 	  Q3: 0 	  Q5: 0 	  Q4: 2 	 
30	 	 	37.4	 	 Q0: 1 	  Q9: 0 	  Q6: 0 	  Q3: 2 	  Q8: 2 	  Q7: 1 	  Q5: 2 	  Q1: 3 	  Q2: 0 	 
31	 	 	71.9	 	 Q2: 0 	  Q6: 0 	  Q5: 0 	  Q0: 0 	  Q3: 1 	  Q8: 0 	  Q4: 1 	  Q9: 3 	  Q7: 3 	 
32	 	 	93.6	 	 Q6: 2 	  Q0: 2 	  Q2: 0 	  Q4: 0 	  Q9: 1 	  Q7: 2 	  Q5: 1 	  Q1: 2 	  Q3: 1 	 
33	 	 	58.8	 	 Q3: 2 	  Q8: 1 	  Q6: 3 	 
34	 	 	54.0	 	 Q3: 3 	 
35	 	 	29.5	 	 Q9: 3 	  Q6: 0 	 
36	 	 	87.0	 	 Q6: 1 	  Q1: 0 	  Q2: 1 	  Q5: 0 	  Q9: 1 	  Q7: 1 	  Q4: 1 	 
37	 	 	34.0	 	 Q4: 1 	  Q3: 1 	  Q5: 1 	  Q7: 0 	  Q8: 0 	  Q1: 2 	 
38	 	 	73.2	 	 Q3: 1 	  Q9: 2 	  Q2: 2 	  Q8: 0 	  Q7: 3 	  Q6: 2 	  Q1: 0 	  Q4: 0 	 
39	 	 	96.5	 	 Q3: 0 	  Q8: 0 	  Q5: 0 	  Q0: 3 	  Q7: 0 	  Q2: 1 	  Q1: 1 	  Q9: 1 	 
40	 	 	60.6	 	 Q9: 2 	  Q7: 2 	 
========================================================== 
TaskID 	 Duration 	 Skill 	 Predecessor IDs 
1	21	Q5:	3
2	30	Q3:	2
3	28	Q1:	1
4	34	Q8:	3
5	32	Q5:	2
6	22	Q5:	1
7	15	Q9:	1
8	35	Q9:	0
9	19	Q1:	3
10	32	Q3:	3
11	10	Q8:	2
12	24	Q8:	3	1
13	30	Q4:	3
14	15	Q1:	3
15	26	Q0:	1	13
16	9	Q2:	3
17	30	Q0:	0	15
18	34	Q8:	2
19	18	Q9:	1
20	16	Q7:	3
21	25	Q0:	3
22	16	Q6:	2	16
23	31	Q6:	1
24	37	Q4:	3
25	15	Q8:	0	7
26	35	Q9:	2	21
27	18	Q8:	2
28	25	Q5:	2	26
29	9	Q1:	2
30	40	Q9:	0
31	25	Q5:	2
32	31	Q8:	2
33	27	Q0:	1	8
34	9	Q9:	3	5
35	20	Q0:	2	12
36	28	Q4:	3
37	12	Q8:	0	30	8	14	28	3
38	9	Q9:	0	33
39	12	Q8:	0	1
40	37	Q6:	0	15
41	32	Q3:	2	7	38
42	37	Q0:	0	35
43	36	Q4:	0	41
44	23	Q8:	0	27	8	20
45	18	Q3:	2	30	39
46	37	Q0:	3
47	9	Q9:	2	11
48	11	Q6:	3	26	11
49	31	Q7:	1
50	24	Q8:	1
51	31	Q0:	3
52	32	Q0:	3
53	28	Q7:	2	3	48
54	28	Q0:	2
55	29	Q7:	2	54
56	15	Q8:	0	19
57	20	Q2:	2
58	14	Q5:	1	21	15	55
59	33	Q5:	3
60	26	Q8:	3	13	9	50
61	24	Q8:	3	31	38	18	6
62	25	Q0:	3	49	4
63	34	Q0:	3	40
64	33	Q8:	2	37	24	10	56
65	13	Q7:	1	1	41	53
66	20	Q9:	0	61	35	49	51	7	22
67	21	Q0:	2	35	7	21	58	47	40
68	40	Q8:	2
69	16	Q9:	2
70	21	Q2:	2	21
71	21	Q3:	0	54	1	47
72	28	Q9:	1
73	28	Q1:	0	30	22	53	70
74	19	Q0:	2	29	43	63
75	24	Q6:	1
76	33	Q8:	2	28	3	4
77	13	Q2:	3	59	40	53	61	33	67
78	35	Q6:	3	26
79	24	Q6:	1
80	30	Q2:	3	69
81	11	Q2:	1	63	35
82	40	Q2:	2	20
83	28	Q8:	2	11	10
84	19	Q2:	2	69	82
85	35	Q2:	3	12	7
86	24	Q3:	3	23	9
87	15	Q4:	3	44	47
88	19	Q1:	1	82	29
89	25	Q2:	3	12	52	88	15	42
90	31	Q8:	0	67
91	39	Q9:	1
92	37	Q9:	3	63	57	28
93	34	Q4:	3	19	24
94	14	Q0:	2	74	66	85
95	24	Q2:	3	69
96	23	Q0:	2	2
97	24	Q3:	1	14	54	6	39
98	16	Q2:	1	53	9	83
99	36	Q0:	2
100	40	Q7:	2	61
101	25	Q0:	0	50	49	39	9	78
102	30	Q4:	3	43	69
103	14	Q2:	2	17	98	24
104	28	Q5:	2	77	46	97
105	19	Q7:	1	18	98	13
106	18	Q5:	3	99	96	73
107	15	Q2:	2	96	72	7	31
108	37	Q9:	1	92	32	80	5
109	39	Q9:	2	67	86	76	43	83
110	17	Q8:	1	30
111	19	Q0:	1	44	33	20	102
112	24	Q1:	3	53	89	81	76
113	40	Q2:	0
114	28	Q5:	1	42	15
115	33	Q5:	0	65	100	58	17	93
116	19	Q7:	2	79	2	15
117	16	Q5:	2	41
118	13	Q5:	2	86
119	37	Q8:	1	62
120	25	Q9:	1	19	25	80	12
121	32	Q6:	1	29	70	12	52	119
122	15	Q0:	0	5	75
123	25	Q5:	2	94	119
124	18	Q1:	0	34	21	25	10	65
125	39	Q6:	0	4	22	5
126	10	Q2:	1	26	3	6	60	20
127	23	Q4:	0	37	89	95
128	10	Q0:	1	7	111	34	122
129	11	Q0:	0	53	8	44
130	21	Q3:	3	12	59	121
131	31	Q4:	2	38	86	41	103
132	32	Q7:	1
133	22	Q5:	3	26	96	128	50
134	32	Q0:	1	25	41	97
135	22	Q4:	0	55	5	75	13	94
136	22	Q2:	1	16	39	120	32
137	20	Q4:	0	104	99	110	5
138	36	Q9:	1	72	133	115
139	21	Q9:	2	130	98	14	86
140	17	Q7:	3	127	63	118
141	22	Q3:	3	66	127	131	22
142	37	Q2:	3	23	59	90	126	129
143	22	Q1:	0	85	90	5
144	24	Q4:	2	89	13	109	61
145	12	Q1:	0
146	22	Q8:	0	141	103	87	101	117
147	26	Q9:	2	68	115	40	80
148	36	Q7:	2	50	89	88	65	38
149	28	Q5:	2	46	103
150	17	Q3:	0	63	114	18	104
151	10	Q2:	2	22	32	91
152	31	Q5:	3	62	13	139	33	106
153	35	Q2:	0	69
154	33	Q8:	2	91
155	33	Q2:	3	3	146	117	86	110
156	33	Q4:	0	1	106	73
157	35	Q8:	3	86	13	73	25
158	19	Q3:	2	141	62	85	66	14
159	35	Q0:	3	83	103	151	26	31	5
160	32	Q7:	3	5	70	94	136
161	37	Q2:	2	118	127	35	151	2	44
162	40	Q7:	1	136
163	38	Q6:	1	123	119	53
164	18	Q0:	0	6	13
165	20	Q1:	2	77	71	105
166	22	Q8:	2	148	120	13
167	28	Q9:	2
168	14	Q7:	1	19	12	13	161
169	10	Q8:	1	153	81	57	147
170	39	Q2:	0	117	162	67	152	29	19	103
171	18	Q7:	1	136	3	53	35	160	83	111	152	84
172	9	Q2:	3	1
173	25	Q6:	2	81	2	54	107	169
174	20	Q7:	1	86	143
175	18	Q5:	3	70	123	4	173	63
176	40	Q7:	0	95	5	79	42	91	36
177	11	Q8:	3	3	129	52	83	154	72	90
178	22	Q8:	3	21	114
179	24	Q2:	2	95	49
180	11	Q1:	0	76	71	173
181	30	Q2:	2	107	142	157	84	8	91
182	21	Q9:	2	104	66	11	3
183	31	Q4:	3	114	42	155	76	10
184	27	Q3:	1	34	30	49	66	14	176
185	15	Q9:	1	149	92	29	65	30	62
186	38	Q9:	0	22	176	29
187	30	Q1:	0	56	147	100
188	26	Q4:	3	42
189	34	Q1:	1	171	90	142	134	176	148	49	63	34
190	12	Q9:	0	125	17	1	34
191	19	Q9:	2	93	90	173
192	27	Q9:	0	44	168	64	108	136	173	118	135	16	121
193	39	Q7:	2	144	178	121	94
194	30	Q7:	0	40	160	90	147	28
195	13	Q1:	2	116	160	67
196	27	Q4:	0	79	131	125	146	8	130
197	14	Q3:	3	158	138	103	182	145
198	20	Q6:	1	59	53	193	79	111
199	26	Q8:	1	88	163	114	35	108	131
200	39	Q5:	2	119	35	37	82	4	168	76	78	176	195	155
========================================================== 